# Solution for model r10_t18_m7_6
# Finished Task: 16 / 18
# Makespan: 436.0, Total Distance: 1125.0, Total Time: 0.0555
# R O S F
0 0 19 0.0 0.0
1 1 21 0.0 0.0
2 2 22 0.0 0.0
3 3 15 0.0 0.0
4 4 10 0.0 0.0
5 5 20 0.0 0.0
6 6 13 0.0 0.0
7 7 18 0.0 0.0
8 8 26 0.0 0.0
9 9 -1 0.0 0.0
10 4 17 98.0 132.0
11 7 -1 403.0 431.0
12 -1 -1 -1.0 -1.0
13 6 27 220.0 249.0
14 2 -1 364.0 403.0
15 3 -1 340.0 364.0
16 -1 -1 -1.0 -1.0
17 4 23 256.0 280.0
18 7 11 280.0 305.0
19 0 25 319.0 340.0
20 5 -1 340.0 376.0
21 1 -1 371.0 399.0
22 2 24 44.0 81.0
23 4 -1 358.0 391.0
24 2 14 303.0 341.0
25 0 -1 399.0 436.0
26 8 -1 82.0 118.0
27 6 -1 341.0 379.0
